# settings file for BOUT++
# Drift-reduced Braginksii model

##################################################
# Global settings used by the core code

nout = 2                      # number of time-steps
timestep = 0.001                 # time between outputs
wall_limit = 48.0              # wall time limit (in hours)

twistshift = true              # use twist-shift condition?
non_uniform = true             # use nonuniform grid

MZ = 16                        # Number of points in Z (toroidal) direction (2^n + 1) # Should this be 64 or 65? 65 seems to give better much with v3's 65 for longer runs.
zperiod = 35                    # Fraction of a torus to simulate

MXG = 2
MYG = 2
#NXPE = 32           # Number of processor in X

[input]
error_on_unused_options = false
#transform_from_field_aligned = true # Default: true

[output]
#shiftoutput = true

[mesh]
file = "d3d_large_elm_detachment_174287.04081_804_0.8psi1.1_54x64y_linear_2.bout.grd_classic_exp_constSOL_omgeb_smoothedPF_w2D.nc"

staggergrids = false           # Use staggered grid (EXPERIMENTAL)

extrapolate_y = false          # Can result in negative Jacobians in guard cells
calcParallelSlices_on_communicate = false
symmetricGlobalY = true        # Default was false in v3 
#include_corner_cells = true

[mesh:paralleltransform]
type = shifted                 # Use shifted metric method

##################################################
# derivative methods

[mesh:ddx]
first = C4                     # order of first x derivatives (options are 2 or 4)
second = C4                    # order of second x derivatives (2 or 4)
upwind = W3                    # order of upwinding method (1, 4, 0 = TVD (DO NOT USE), 3 = WENO)

[mesh:ddy]
first = C4
second = C4
upwind = W3
flux = C2

[mesh:ddz]
first = FFT                     # Z derivatives can be done using FFT
second = FFT
upwind = W3

##################################################
# Laplacian inversion routines

[laplace]
#laplace_nonuniform = true
nonuniform = true
#type = tri     # Default is cyclic but it was tri in v3 
include_yguards = false
# maxmode = 16                  # Maximum N to solve for

##################################################
# FFTs

[fft]
#fft_measurement_flag = measure # If using FFTW, perform tests to determine fastest method

##################################################
# Solver settings

[solver]
#nout = 10000          # Number of output steps
#output_step = 150    # Output timestep, normalised ion cyclotron times [1/Omega_ci]
# mudq, mldq, mukeep, mlkeep preconditioner options
type = cvode 
atol = 1.0e-12                 # absolute tolerance
rtol = 1.0e-6                  # relative tolerance
use_precon = false             # Use preconditioner: User-supplied or BBD
mxstep = 50000                # Max number of internal steps between outputs
cvode_max_order = 3
use_vector_abstol = false
maxl = 20
max_nonlinear_iterations = 7
#diagnose = true

##################################################
# settings for high-beta reduced MHD

[highbeta]
## Profile control
density = 1.0e20               # number density normalization factor: Nixexp*density (m^-3), Nixexp from grid if existing.
density_unit = 1.0e20          # number density unit for grid (m^-3)

#Nbar = 1e10                    # Reference density (m^-3) 1e20.0
#Bbar = 3.310039                # Reference magnetic field (T) 3.310039
#Lbar = 2.273225                # Reference length scale (m) 2.273225
#Tibar = 1000.0                 # Reference temperature (eV) 1000.0
#Tebar = 1000.0                 # Reference temperature (eV) 1000.0

n0_fake_prof = false           # use the hyperbolic profile of n0. If both n0_fake_prof and T0_fake_prof are false, use the profiles from grid file
# case1: n0~n0_height*(p0/P00)^0.3*density
n0_p0_0p3 = false              # if both n0_fake_prof and n0_p0_0p3 are true,
#P00 = 23072.3                 # P0 at magnetic axis, required if n0_p0_0p3 is true.
# case2: N0 = N0tanh(n0_height*Nbar, n0_ave*Nbar, n0_width, n0_center)
n0_height = 2.00               # the total height of profile of N0, in percentage of Ni_x
n0_ave = 0.2                   # the constant tail of N0 profile, in percentage of Ni_x
n0_width = 0.1                 # the width of the gradient of N0, in percentage of x
n0_center = 0.636              # the the center of N0, in percentage of x
n0_bottom_x = 0.81             # the start of flat region of N0 on SOL side, in percentage of x

T0_fake_prof = false           # use the costant profile of T0. It is prior to n0_fake_prof
Tconst = -1.0                  # the amplitude of Ti0 and Te0, in percentage of Tibar

load_2d_bkgd = false           # Load background/equilibrium profiles from 2D transport similation data
load_1d_bkgd = false           # Load background/equilibrium profiles from 2D transport similation data - 1D profiles at the omp

impurity_prof = false          # Include the profile of impurity in the equilibrium (Now only valid for experimental profiles of N0 anf T0)
load_impurity = false          # if load impurity density from grid
Z_imp = 6                      # The charge number of impurity
A_imp = 12                     # The mass number of impurity
Nimp_lowlimit = false          # limit the lowest value of impurity density
quasi_neutral_Ni = false       # use quasi neutral condition to calculate N0 instead of reading from grid. Does not work if impurity is on

Zi = 1.0                       # ion charge number
AA = 2.0                       # ion mass in units of proton mass
Zeff = 2.5                     # Electric resistivity multiplier

laplace_alpha = 1.0            # test the effect of first order term of invert Laplace function
Low_limit = 1.0e-6             # Limit the negative value of total density and temperatures

##################################################
## physical model -- effects to include/exclude
nonlinear = true               # include non-linear terms?

diamag = true                  # Include diamagnetic effects?
dia_fact = 1.0
diamag_phi0 = true             # Balance ExB against Vd for stationary equilibrium
diamag_er = false               # Using Er0 instead of Phi0, more accurate
experiment_Er = false          # Using experimental E_r
Er0_factor = 1.0
KH_term = false                # switch to Kelvin-Helmholtz term

compress0 = true               # open the ion velocity equation
continuity = true              # use continuity eqution
eHall = true                   # electron Hall effects
energy_flux = true             # energy flux
energy_exch = true             # energy exchange
thermal_force = true           # thermal force
gyroviscous = true             # gyroviscous in vorticity
parallel_viscous = false       # parallel viscosity terms

include_jpar0 = true           # determines whether to include jpar0 terms
include_curvature = true       # include curvature drive term?
include_vipar = false          # include Vpar_dot_Grad terms (TEST)
include_vpar0 = false          # include Vpar0 terms. Vpar0  is the ecuilibrium 2D backgraound from 2D trasnport simulations (TEST)
include_U0 = false             # include U0 terms. U0 is the ecuilibrium 2D vorticity backgraound from 2D trasnport simulations (TEST)

## Resistivity and Hyper-resistivity
spitzer_resist = true          # open the calculation of Spitzer resistivity
vac_lund = -1.0e8              # Lundquist number in vacuum  (negative -> infinity)
core_lund = -1.0e8             # Lundquist number in core (negative -> infinity)
hyperresist = 1.0e-15          # Hyper-resistivity coefficient (like 1 / Lundquist number)

## Pressure diffusion
diffusion_par = 1.0            # parallel thermal conductivity (>0 open)
diffusion_perp = 1.0           # perpendicular thermal conductivity (>0 open), Landau damping closure not supported.
diff_par_flutter = false       # the perturbed part of the termal conduction

## Parallel heat flux options
# case0: Spitzer-Harm parallel thermal conductivities (default)
# case1: flux limited expression
fluxlimit = true               # flux limit used in kappa_par expression
q_alpha = 1.0                  # flux-limiting coefficient, typical value is (0.03, 3)
q95_input = -5.0               # input q95 as a constant, if <0 use local q profile from grid
local_q = true                 # using magnetic field to calculate q profile, not recommanded

## neoclassic switch
neoclassic_i = false            # switch for ion neoclassical transport
neoclassic_e = false            # switch for electron neoclassical transport
epsilon = 0.4                  # the value of inverse aspect ratio

## perpendicular diffusion coefficients in [m^2/s]. For numerical stabilization
perpendicular_diffusion = false
diff_perp_Ni = 0.01
diff_perp_Ti = 0.01
diff_perp_Te = 0.01
diff_perp_U = 0.01
diff_perp_Vipar = 0.01

increased_dissipation_xbndries = 5
xbndry_dissipation_factor = 5.0
increased_resistivity_xbndries = false

#############################################################################

## 4th order diffusion
hyperdiff_par_n4    = -1.0e-4      # 4th order Parallel density diffusion (< 0 = none)
hyperdiff_par_ti4   = -1.0e-4      # 4th order Parallel ion temperature diffusion (< 0 = none)
hyperdiff_par_te4   = -1.0e-4      # 4th order Parallel electron temperature diffusion (< 0 = none)
hyperdiff_par_v4    = -1.0e-5      # 4th order Parallel ion velocity diffusion (< 0 = none)
hyperdiff_par_u4    = -1.0e-5      # hyper parallel viscosity (<0 - none)
hyperdiff_par_apar4 = -1.0e-5

hyperdiff_perp_n4   = -1.0e-11      # 4th order perpendicular density diffusion (< 0 = none)
hyperdiff_perp_ti4  = -1.0e-11      # 4th order perpendicular ion temperature diffusion (< 0 = none)
hyperdiff_perp_te4  = -1.0e-11      # 4th order perpendicular electron temperature diffusion (< 0 = none)
hyperdiff_perp_v4   = -1.0e-12      # 4th order perpendicular ion velocity diffusion (< 0 = none)
hyperdiff_perp_u4   = -1.0e-12      # hyper perpendicular viscosity (<0 - none)
hyperdiff_perp_apar4= -1.0e-12

## Limit the infinity value of Jacobi
limit_jacobi = false           # limit the value of jacobi at x-point region
bpxy_constraint = 0.04         # the minimal value of bpxy
hthe_constraint = 0.04         # the minimal value of hthe
const_bp = -0.5                # const Bpxy if >0

##########################################################################

## filter the instability at PF
PF_limit = false               # swith of the filter at PF
PF_limit_range = 0.30          # the range of the filter at x direction (1 means all the PF region)
PF_sink = -1                   # sink term at inner boundary of PF
PFs_width = 0.06
PFs_length = 0.1

##########################################################################

## Sheath Boundary Condition
sheath_boundaries = true      # Apply sheath boundaries in Y?
gamma_i_BC = 2.5               # sheath energy transmission factor for ion
gamma_e_BC = 4.8               # sheath energy transmission factor for electron
Sheath_width = 0
SBC_phi = false                # use sheath boundary on phi instead of Jpar # Not used

#######################################################################

## Flux driven
NiAmp = -1
TiAmp = -1
TeAmp = -1
NiLoc = 17
TiLoc = 17
TeLoc = 17
NiSig = 5
TiSig = 5
TeSig = 5

#######################################################################

## Fixed fraction model for impurity radiation
fix_fraction_imp = false
Limp_carbon = false             # carbon
Limp_nitro = false             # nitrogen
Limp_Neon = false              # Neon
Limp_Argon = false             # Argon
Limp_carbon_adas = false       # carbon_adas
Limp_nitro_adas = false        # nitrogen_adas
Limp_Neon_adas = false         # Neon_adas
Limp_Argon_adas = false        # Argon_adas
frac_imp = 0.05                # impurity fraction

#######################################################################

## output control
output_transfer = false        # output the results of energy transfer
output_ohm = false             # output the results of the terms in Ohm's law
output_flux_par = true         # output the heat flux
output_Teterms = false
output_Titerms = false
output_Tevegradte = false
output_qparcompare = false
output_vradial = true          # output the results of radial velocity, induced by ExB and magnetic flutter

#######################################################################
evolve_psi = false
phi_constraint = false         # Solve phi as a constraint (DAE system, needs IDA solver)
jpar_bndry_width = -5

parallel_lr_diff = false       # parallel differencing method

set_G3_to_zero = true

#######################################################################
# BRACKET_METHOD flags:
# 0:BRACKET_STD; derivative methods will be determined
#   by the choices C or W in this input file
# 1:BRACKET_SIMPLE; 2:BRACKET_ARAKAWA; 3:BRACKET_CTU.

bracket_method_exb = 0         # differencing schemes for ExB 0
bracket_method_mag = 2         # differencing schemes for magnetic flutter 2

#######################################################################
filter_nl = -1                 # Switch of nonlinear fliter
noshear = false                # zero all shear

## Toroidal filtering
filter_z = false               # remove all except one mode
filter_z_nonlinear = true     # remove all except zonal and filter_z_mode
filter_z_mode = 1              # Specify which harmonic to keep (1 = fundamental)
low_pass_z = 16                # Keep up to and including this harmonic (-1 = keep all)
zonal_flow = false             # keep this zonal harmonic?
zonal_field = false            # keep this zonal harmonic?
zonal_bkgd = true              # keep this zonal harmonic?
remove_DC = false              # remove the DC part of the time derivatives for all variables

## Toroidal filtering for certain position
pos_filter = false             # switch to turn on the filter of the negative zonal background
pos_filter2 = false            # switch to turn on the filter inside certain position
pos_filter_zf = false          # switch to turn on the filter of the dc profiles inside certain postion with tanh function
pos_sink_zf = -10.             # switch to turn on the sink of the dc profiles inside certain postion with tanh function
keep_zonalPF = false           # keep the zonal component in PF region when zonal filter is turned on
filter_position_ni = 181       # radial index of the filter/sink. Zonal component in the x range of 0 - filter_position_ni will be filtered
filter_position_ti = 123       # radial index of the filter/sink. Zonal component in the x range of 0 - filter_position_ni will be filtered
filter_position_te = 178       # radial index of the filter/sink. Zonal component in the x range of 0 - filter_position_ni will be filtered
pos_filter_width = 0.02        # width of pos_filter_zf with the normalization of filter_position
pos_filter_length = 0.95       # length of pos_filter_zf with the normalization of filter_position

#################################################################################

## Jpar smoothing
smooth_j_x = true              # Filter Jpar in the X direction
mask_j_x = false               # Mask Jpar at inner boundary in x direction
mask_flag_j = 1                # mask flag, 0: mask on left boundary; 1: right; others: both on left and right
mask_phi_x = false             # Mask phi at inner boundary in x direction
mask_flag_phi = 0              # mask flag, 0: mask on left boundary; 1: right; others: both on left and right
mask_length = 0.1              # the center of tanh function, DO NOT change
mask_width = 0.03              # the width of tanh function, DO NOT change
#lowpass_j_z = 16               # Remove high-k modes. Specifies maximum harmonic to keep # Not used

## Vacuum region control
vacuum_pressure = 0.02         # the pressure below which it is considered vacuum fraction of peak pressure
vacuum_trans = 0.01            # transition width (fraction of P)

## Inner boundary damping
damp_width = -1                # Width of damping region (grid cells)
damp_t_const = 0.01            # Damping time constant

## sink rate in parallel velocity
sink_vp = -10.0                # left edge sink rate in Vipar (< 0 = none)
sp_width = 0.06                # sink width, in percentage of nx (< 0 = none)
sp_length = 0.1                # sink length in percentage of nx (< 0 = none)

## left edge sink rate in vorticity
sink_Ul = -10.0                # left edge sink rate in vorticity (< 0 = none)
su_widthl = 0.06               # left edge sink width, in percentage of nx (< 0 = none)
su_lengthl = 0.1               # left edge sink length in percentage of nx (< 0 = none)

## right edge sink rate in vorticity
sink_Ur = -10.0                # right edge sink rate in vorticity (< 0 = none)
su_widthr = 0.06               # right edge sink width, in percentage of nx (< 0 = none)
su_lengthr = 0.1               # right edge sink length in percentage of nx (< 0 = none)

## right edge sink rate in Te
sink_Ter = -10.0               # right edge sink rate in Te (< 0 = none)
ste_widthr  = 0.06             # right edge sink width, in percentage of nx (< 0 = none)
ste_lengthr = 0.1              # right edge sink length in percentage of nx (< 0 = none)

## Viscosity and Hyper-viscosity
viscos_par =  0.1              # Parallel viscosity (< 0 = none)
viscos_perp = -1.0             # Perpendicular # Not used
hyperviscos = -1.0             # Radial hyper viscosity

[phiSolver]
inner_boundary_flags = 1 + 4    # INVERT_DC_GRAD + INVERT_AC_LAP
outer_boundary_flags = 4        # INVERT_AC_LAP
nonuniform = true
type = cyclic
include_yguards = false
# maxmode = 16                  # Maximum N to solve for

[aparSolver]
inner_boundary_flags = 1 + 4    # INVERT_DC_GRAD + INVERT_AC_LAP
outer_boundary_flags = 4        # INVERT_AC_LAP
nonuniform = true
type = cyclic
include_yguards = false
# maxmode = 16                  # Maximum N to solve for

##################################################
# settings for individual variables
# The section "All" defines default settings for all variables
# These can be overridden for individual variables in
# a section of that name.

[all]
scale = 0.0                    # default size of initial perturbations
function = 1.0

# boundary conditions
# -------------------
# dirichlet    - Zero value
# neumann      - Zero gradient
# zerolaplace  - Laplacian = 0, decaying solution
# constlaplace - Laplacian = const, decaying solution
#
# relax( )   - Make boundary condition relaxing

bndry_all = dirichlet_o1 # Default to zero-value
bndry_core = dirichlet_o1
bndry_sol = dirichlet_o1
bndry_pf = dirichlet_o1
bndry_xin = dirichlet_o1
bndry_xout = dirichlet_o1
bndry_lower_target = fromFieldAligned(dirichlet_o1)
bndry_upper_target = fromFieldAligned(dirichlet_o1)

[U]   # vorticity
scale = 1.0e-5
#function = sin(z) * exp(-((x-0.5)/0.1)^2) * exp(-((y/(2*pi)-0.5)/0.3)^2)
#function = ballooning(gauss(x-0.5,0.1)*gauss(y-pi,0.6*pi)*sin(z),3)
#function = sin(z) * exp(-((x-0.5)/0.1)^2)
#function = sin(y)
function = ballooning(mixmode(z,65))


bndry_core = neumann_o1
bndry_sol = dirichlet_o1
bndry_pf = dirichlet_o1
#bndry_xin = dirichlet_o1
#bndry_xout = dirichlet_o1
bndry_lower_target = fromFieldAligned(dirichlet_o1)
bndry_upper_target = fromFieldAligned(dirichlet_o1)

#bndry_core = neumann_o1
#bndry_sol = dirichlet_o1
#bndry_pf = dirichlet_o1
#bndry_xin = dirichlet_o1
#bndry_xout = dirichlet_o1
#bndry_lower_target = neumann_o1
#bndry_upper_target = neumann_o1
#bndry_ydown = none
#bndry_yup = none
#bndry_par_all = parallel_dirichlet_o1
#bndry_yup = fromFieldAligned(neumann_o1)
#bndry_ydown = fromFieldAligned(neumann_o1)
#bndry_yup = free_o3
#bndry_ydown = free_o3

[Ni]  # number density
bndry_core = neumann_o1
bndry_sol = dirichlet_o1
bndry_pf = dirichlet_o1
#bndry_xin = dirichlet_o1
#bndry_xout = dirichlet_o1
bndry_lower_target = fromFieldAligned(neumann_o1)
bndry_upper_target = fromFieldAligned(neumann_o1)

[Ti]  # ion temperature
bndry_core = neumann_o1
bndry_sol = dirichlet_o1
bndry_pf = dirichlet_o1
#bndry_xin = dirichlet_o1
#bndry_xout = dirichlet_o1
bndry_lower_target = fromFieldAligned(neumann_o1)
bndry_upper_target = fromFieldAligned(neumann_o1)


[Te]  # electron density
bndry_core = neumann_o1
bndry_sol = dirichlet_o1
bndry_pf = dirichlet_o1
#bndry_xin = dirichlet_o1
#bndry_xout = dirichlet_o1
bndry_lower_target = fromFieldAligned(neumann_o1)
bndry_upper_target = fromFieldAligned(neumann_o1)

[P]  # pressure
bndry_core = neumann_o1
bndry_sol = dirichlet_o1
bndry_pf = dirichlet_o1
#bndry_xin = dirichlet_o1
#bndry_xout = dirichlet_o1
bndry_lower_target = fromFieldAligned(neumann_o1)
bndry_upper_target = fromFieldAligned(neumann_o1)

[Psi] # Vector potential
# zero laplacian
bndry_core = zerolaplace
bndry_sol = zerolaplace
bndry_pf = zerolaplace
bndry_xin = zerolaplace
bndry_xout = zerolaplace
bndry_lower_target = fromFieldAligned(dirichlet_o1)
bndry_upper_target = fromFieldAligned(dirichlet_o1)

[Apar] # Vector potential
# zero laplacian: zerolaplace
bndry_core = zerolaplace
bndry_sol = zerolaplace
bndry_pf = zerolaplace
#bndry_xin = dirichlet_o1
#bndry_xout = dirichlet_o1
bndry_lower_target = fromFieldAligned(dirichlet_o1)
bndry_upper_target = fromFieldAligned(dirichlet_o1)

[J]    # parallel current
# Zero gradient in the core
bndry_core = neumann_o1
bndry_sol = dirichlet_o1
bndry_pf = dirichlet_o1
#bndry_xin = dirichlet_o1
#bndry_xout = dirichlet_o1
bndry_lower_target = fromFieldAligned(dirichlet_o1)
bndry_upper_target = fromFieldAligned(dirichlet_o1)

[Vipar]
bndry_core = neumann_o1
bndry_sol = dirichlet_o1
bndry_pf = dirichlet_o1
#bndry_xin = dirichlet_o1
#bndry_xout = dirichlet_o1
bndry_lower_target = fromFieldAligned(dirichlet_o1)
bndry_upper_target = fromFieldAligned(dirichlet_o1)

[phi]
bndry_core = zerolaplace
bndry_sol = zerolaplace
bndry_pf = zerolaplace
bndry_xin = zerolaplace
bndry_xout = zerolaplace
bndry_lower_target = fromFieldAligned(dirichlet_o1)
bndry_upper_target = fromFieldAligned(dirichlet_o1)


[kappa] # boundary for collision rate and conductivities
bndry_core = neumann_o1
bndry_sol = neumann_o1
bndry_pf = neumann_o1
bndry_xin = neumann_o1
bndry_xout = neumann_o1
bndry_lower_target = fromFieldAligned(neumann_o1)
bndry_upper_target = fromFieldAligned(neumann_o1)

[background] # set boundary values for background profiles
bndry_core = zerolaplace
bndry_sol = zerolaplace
bndry_pf = zerolaplace
bndry_xin = zerolaplace
bndry_xout = zerolaplace
bndry_lower_target = fromFieldAligned(neumann_o1)
bndry_upper_target = fromFieldAligned(neumann_o1)

#[neumann_input] # set neumann bc with correct y BC
#bndry_core = neumann_o1
#bndry_sol = neumann_o1
#bndry_pf = neumann_o1
#bndry_xin = neumann_o1
#bndry_xout = neumann_o1
#bndry_lower_target = fromFieldAligned(neumann_o1)
#bndry_upper_target = fromFieldAligned(neumann_o1)

[dirichlet_input] # set dirichlet bc with correct y BC
bndry_core = dirichlet_o1
bndry_sol = dirichlet_o1
bndry_pf = dirichlet_o1
bndry_xin = dirichlet_o1
bndry_xout = dirichlet_o1
bndry_lower_target = fromFieldAligned(dirichlet_o1)
bndry_upper_target = fromFieldAligned(dirichlet_o1)
